c description: Perfect Matching Principle on 
c generator: CNFgen (0.9.0)
c copyright: (C) 2012-2020 Massimo Lauria <massimo.lauria@uniroma1.it>
c url: https://massimolauria.net/cnfgen
c
p cnf 80 626
-1 -2 0
-1 -3 0
-1 -4 0
-1 -5 0
-1 -6 0
-2 -3 0
-2 -4 0
-2 -5 0
-2 -6 0
-3 -4 0
-3 -5 0
-3 -6 0
-4 -5 0
-4 -6 0
-5 -6 0
1 2 3 4 5 6 0
-7 -8 0
-7 -9 0
-7 -10 0
-7 -11 0
-7 -12 0
-7 -13 0
-7 -14 0
-8 -9 0
-8 -10 0
-8 -11 0
-8 -12 0
-8 -13 0
-8 -14 0
-9 -10 0
-9 -11 0
-9 -12 0
-9 -13 0
-9 -14 0
-10 -11 0
-10 -12 0
-10 -13 0
-10 -14 0
-11 -12 0
-11 -13 0
-11 -14 0
-12 -13 0
-12 -14 0
-13 -14 0
7 8 9 10 11 12 13 14 0
-7 -15 0
-7 -16 0
-7 -17 0
-7 -18 0
-7 -19 0
-7 -20 0
-7 -21 0
-15 -16 0
-15 -17 0
-15 -18 0
-15 -19 0
-15 -20 0
-15 -21 0
-16 -17 0
-16 -18 0
-16 -19 0
-16 -20 0
-16 -21 0
-17 -18 0
-17 -19 0
-17 -20 0
-17 -21 0
-18 -19 0
-18 -20 0
-18 -21 0
-19 -20 0
-19 -21 0
-20 -21 0
7 15 16 17 18 19 20 21 0
-1 -8 0
-1 -15 0
-1 -22 0
-1 -23 0
-1 -24 0
-1 -25 0
-1 -26 0
-1 -27 0
-1 -28 0
-8 -15 0
-8 -22 0
-8 -23 0
-8 -24 0
-8 -25 0
-8 -26 0
-8 -27 0
-8 -28 0
-15 -22 0
-15 -23 0
-15 -24 0
-15 -25 0
-15 -26 0
-15 -27 0
-15 -28 0
-22 -23 0
-22 -24 0
-22 -25 0
-22 -26 0
-22 -27 0
-22 -28 0
-23 -24 0
-23 -25 0
-23 -26 0
-23 -27 0
-23 -28 0
-24 -25 0
-24 -26 0
-24 -27 0
-24 -28 0
-25 -26 0
-25 -27 0
-25 -28 0
-26 -27 0
-26 -28 0
-27 -28 0
1 8 15 22 23 24 25 26 27 28 0
-2 -16 0
-2 -29 0
-2 -30 0
-2 -31 0
-2 -32 0
-2 -33 0
-2 -34 0
-2 -35 0
-16 -29 0
-16 -30 0
-16 -31 0
-16 -32 0
-16 -33 0
-16 -34 0
-16 -35 0
-29 -30 0
-29 -31 0
-29 -32 0
-29 -33 0
-29 -34 0
-29 -35 0
-30 -31 0
-30 -32 0
-30 -33 0
-30 -34 0
-30 -35 0
-31 -32 0
-31 -33 0
-31 -34 0
-31 -35 0
-32 -33 0
-32 -34 0
-32 -35 0
-33 -34 0
-33 -35 0
-34 -35 0
2 16 29 30 31 32 33 34 35 0
-22 -36 0
-22 -37 0
-22 -38 0
-22 -39 0
-22 -40 0
-36 -37 0
-36 -38 0
-36 -39 0
-36 -40 0
-37 -38 0
-37 -39 0
-37 -40 0
-38 -39 0
-38 -40 0
-39 -40 0
22 36 37 38 39 40 0
-23 -29 0
-23 -41 0
-23 -42 0
-23 -43 0
-23 -44 0
-23 -45 0
-29 -41 0
-29 -42 0
-29 -43 0
-29 -44 0
-29 -45 0
-41 -42 0
-41 -43 0
-41 -44 0
-41 -45 0
-42 -43 0
-42 -44 0
-42 -45 0
-43 -44 0
-43 -45 0
-44 -45 0
23 29 41 42 43 44 45 0
-24 -30 0
-24 -46 0
-24 -47 0
-24 -48 0
-24 -49 0
-24 -50 0
-24 -51 0
-30 -46 0
-30 -47 0
-30 -48 0
-30 -49 0
-30 -50 0
-30 -51 0
-46 -47 0
-46 -48 0
-46 -49 0
-46 -50 0
-46 -51 0
-47 -48 0
-47 -49 0
-47 -50 0
-47 -51 0
-48 -49 0
-48 -50 0
-48 -51 0
-49 -50 0
-49 -51 0
-50 -51 0
24 30 46 47 48 49 50 51 0
-17 -25 0
-17 -41 0
-17 -46 0
-17 -52 0
-17 -53 0
-17 -54 0
-25 -41 0
-25 -46 0
-25 -52 0
-25 -53 0
-25 -54 0
-41 -46 0
-41 -52 0
-41 -53 0
-41 -54 0
-46 -52 0
-46 -53 0
-46 -54 0
-52 -53 0
-52 -54 0
-53 -54 0
17 25 41 46 52 53 54 0
-3 -18 0
-3 -26 0
-3 -52 0
-3 -55 0
-3 -56 0
-3 -57 0
-3 -58 0
-18 -26 0
-18 -52 0
-18 -55 0
-18 -56 0
-18 -57 0
-18 -58 0
-26 -52 0
-26 -55 0
-26 -56 0
-26 -57 0
-26 -58 0
-52 -55 0
-52 -56 0
-52 -57 0
-52 -58 0
-55 -56 0
-55 -57 0
-55 -58 0
-56 -57 0
-56 -58 0
-57 -58 0
3 18 26 52 55 56 57 58 0
-9 -31 0
-9 -36 0
-9 -59 0
-31 -36 0
-31 -59 0
-36 -59 0
9 31 36 59 0
-4 -10 0
-4 -19 0
-4 -37 0
-4 -42 0
-4 -60 0
-4 -61 0
-4 -62 0
-4 -63 0
-4 -64 0
-4 -65 0
-4 -66 0
-10 -19 0
-10 -37 0
-10 -42 0
-10 -60 0
-10 -61 0
-10 -62 0
-10 -63 0
-10 -64 0
-10 -65 0
-10 -66 0
-19 -37 0
-19 -42 0
-19 -60 0
-19 -61 0
-19 -62 0
-19 -63 0
-19 -64 0
-19 -65 0
-19 -66 0
-37 -42 0
-37 -60 0
-37 -61 0
-37 -62 0
-37 -63 0
-37 -64 0
-37 -65 0
-37 -66 0
-42 -60 0
-42 -61 0
-42 -62 0
-42 -63 0
-42 -64 0
-42 -65 0
-42 -66 0
-60 -61 0
-60 -62 0
-60 -63 0
-60 -64 0
-60 -65 0
-60 -66 0
-61 -62 0
-61 -63 0
-61 -64 0
-61 -65 0
-61 -66 0
-62 -63 0
-62 -64 0
-62 -65 0
-62 -66 0
-63 -64 0
-63 -65 0
-63 -66 0
-64 -65 0
-64 -66 0
-65 -66 0
4 10 19 37 42 60 61 62 63 64 65 66 0
-5 -32 0
-5 -43 0
-5 -47 0
-5 -53 0
-5 -60 0
-5 -67 0
-5 -68 0
-5 -69 0
-32 -43 0
-32 -47 0
-32 -53 0
-32 -60 0
-32 -67 0
-32 -68 0
-32 -69 0
-43 -47 0
-43 -53 0
-43 -60 0
-43 -67 0
-43 -68 0
-43 -69 0
-47 -53 0
-47 -60 0
-47 -67 0
-47 -68 0
-47 -69 0
-53 -60 0
-53 -67 0
-53 -68 0
-53 -69 0
-60 -67 0
-60 -68 0
-60 -69 0
-67 -68 0
-67 -69 0
-68 -69 0
5 32 43 47 53 60 67 68 69 0
-27 -33 0
-27 -44 0
-27 -55 0
-27 -61 0
-27 -70 0
-33 -44 0
-33 -55 0
-33 -61 0
-33 -70 0
-44 -55 0
-44 -61 0
-44 -70 0
-55 -61 0
-55 -70 0
-61 -70 0
27 33 44 55 61 70 0
-11 -38 0
-11 -48 0
-11 -56 0
-11 -62 0
-11 -67 0
-11 -71 0
-11 -72 0
-11 -73 0
-38 -48 0
-38 -56 0
-38 -62 0
-38 -67 0
-38 -71 0
-38 -72 0
-38 -73 0
-48 -56 0
-48 -62 0
-48 -67 0
-48 -71 0
-48 -72 0
-48 -73 0
-56 -62 0
-56 -67 0
-56 -71 0
-56 -72 0
-56 -73 0
-62 -67 0
-62 -71 0
-62 -72 0
-62 -73 0
-67 -71 0
-67 -72 0
-67 -73 0
-71 -72 0
-71 -73 0
-72 -73 0
11 38 48 56 62 67 71 72 73 0
-6 -12 0
-6 -20 0
-6 -34 0
-6 -39 0
-6 -57 0
-6 -63 0
-6 -71 0
-6 -74 0
-6 -75 0
-6 -76 0
-12 -20 0
-12 -34 0
-12 -39 0
-12 -57 0
-12 -63 0
-12 -71 0
-12 -74 0
-12 -75 0
-12 -76 0
-20 -34 0
-20 -39 0
-20 -57 0
-20 -63 0
-20 -71 0
-20 -74 0
-20 -75 0
-20 -76 0
-34 -39 0
-34 -57 0
-34 -63 0
-34 -71 0
-34 -74 0
-34 -75 0
-34 -76 0
-39 -57 0
-39 -63 0
-39 -71 0
-39 -74 0
-39 -75 0
-39 -76 0
-57 -63 0
-57 -71 0
-57 -74 0
-57 -75 0
-57 -76 0
-63 -71 0
-63 -74 0
-63 -75 0
-63 -76 0
-71 -74 0
-71 -75 0
-71 -76 0
-74 -75 0
-74 -76 0
-75 -76 0
6 12 20 34 39 57 63 71 74 75 76 0
-13 -28 0
-13 -40 0
-13 -58 0
-13 -64 0
-13 -68 0
-13 -72 0
-13 -74 0
-13 -77 0
-13 -78 0
-28 -40 0
-28 -58 0
-28 -64 0
-28 -68 0
-28 -72 0
-28 -74 0
-28 -77 0
-28 -78 0
-40 -58 0
-40 -64 0
-40 -68 0
-40 -72 0
-40 -74 0
-40 -77 0
-40 -78 0
-58 -64 0
-58 -68 0
-58 -72 0
-58 -74 0
-58 -77 0
-58 -78 0
-64 -68 0
-64 -72 0
-64 -74 0
-64 -77 0
-64 -78 0
-68 -72 0
-68 -74 0
-68 -77 0
-68 -78 0
-72 -74 0
-72 -77 0
-72 -78 0
-74 -77 0
-74 -78 0
-77 -78 0
13 28 40 58 64 68 72 74 77 78 0
-14 -35 0
-14 -49 0
-14 -59 0
-14 -65 0
-14 -70 0
-14 -73 0
-14 -75 0
-14 -77 0
-14 -79 0
-14 -80 0
-35 -49 0
-35 -59 0
-35 -65 0
-35 -70 0
-35 -73 0
-35 -75 0
-35 -77 0
-35 -79 0
-35 -80 0
-49 -59 0
-49 -65 0
-49 -70 0
-49 -73 0
-49 -75 0
-49 -77 0
-49 -79 0
-49 -80 0
-59 -65 0
-59 -70 0
-59 -73 0
-59 -75 0
-59 -77 0
-59 -79 0
-59 -80 0
-65 -70 0
-65 -73 0
-65 -75 0
-65 -77 0
-65 -79 0
-65 -80 0
-70 -73 0
-70 -75 0
-70 -77 0
-70 -79 0
-70 -80 0
-73 -75 0
-73 -77 0
-73 -79 0
-73 -80 0
-75 -77 0
-75 -79 0
-75 -80 0
-77 -79 0
-77 -80 0
-79 -80 0
14 35 49 59 65 70 73 75 77 79 80 0
-21 -45 0
-21 -50 0
-21 -54 0
-21 -66 0
-21 -69 0
-21 -79 0
-45 -50 0
-45 -54 0
-45 -66 0
-45 -69 0
-45 -79 0
-50 -54 0
-50 -66 0
-50 -69 0
-50 -79 0
-54 -66 0
-54 -69 0
-54 -79 0
-66 -69 0
-66 -79 0
-69 -79 0
21 45 50 54 66 69 79 0
-51 -76 0
-51 -78 0
-51 -80 0
-76 -78 0
-76 -80 0
-78 -80 0
51 76 78 80 0